cantSalas = 1;
cantRamos = 30;
bloques = [1, 1, 2, 1, 1, 1, 1, 1, 1, 2, 1, 1, 2, 2, 1, 2, 1, 2, 1, 2, 1, 1, 1, 1, 2, 2, 2, 1, 2, 1];
capacidad = [80];
prioridad = [8, 2, 3, 4, 5, 9, 2, 2, 3, 2, 9, 2, 5, 3, 3, 10, 5, 3, 2, 4, 8, 5, 5, 1, 4, 7, 1, 4, 2, 2];
interes = [66, 55, 45, 74, 45, 59, 56, 80, 78, 48, 79, 77, 40, 65, 47, 50, 76, 71, 72, 80, 47, 56, 50, 58, 75, 60, 59, 74, 77, 50];
disponibilidad = array2d(1..cantRamos, 1..35, [
  false, true, false, false, false, true, false, true, false, true, true, false, false, true, true, false, false, false, true, true, false, false, true, true, true, true, false, false, false, true, false, true, false, false, false,
  true, true, false, false, false, false, false, false, true, false, true, false, true, true, true, true, true, false, true, true, false, true, true, false, true, false, false, true, false, true, true, true, true, true, true,
  true, false, true, true, true, true, false, true, true, true, true, true, true, true, true, true, false, false, true, true, false, true, false, true, true, true, true, true, false, true, false, false, true, true, true,
  false, true, true, false, true, true, true, true, false, true, true, true, true, true, true, true, false, false, true, false, false, false, true, true, false, true, false, true, false, true, false, true, true, false, true,
  true, true, false, false, false, false, true, true, true, true, true, false, true, true, true, false, true, true, false, false, false, false, true, true, false, false, false, true, true, false, true, true, false, false, false,
  true, true, true, true, false, false, false, true, false, false, false, false, true, false, false, true, true, false, false, true, false, false, false, true, true, true, false, false, true, false, true, false, false, true, false,
  true, false, true, true, true, true, true, true, false, true, false, true, true, true, true, true, true, true, true, true, true, true, true, true, false, false, false, true, true, true, true, true, true, true, false,
  true, true, true, false, true, false, false, true, true, true, true, false, true, false, true, true, true, false, false, true, true, false, true, true, false, false, true, false, false, true, true, true, true, false, false,
  false, false, false, false, true, false, true, true, true, true, true, false, true, false, false, false, true, false, false, false, true, false, true, true, false, false, false, true, true, true, false, false, false, false, true,
  true, true, true, false, true, true, true, true, true, true, true, true, false, false, true, true, false, true, false, true, true, true, true, false, true, true, false, true, false, true, true, true, true, true, true,
  true, false, true, true, true, true, true, true, true, false, true, true, true, false, true, true, true, true, true, true, false, true, false, true, true, true, false, false, true, true, true, true, true, true, false,
  true, false, true, true, true, false, true, false, true, false, false, true, true, false, true, false, false, true, false, true, false, false, true, false, true, true, false, true, false, false, false, true, false, true, false,
  true, false, false, true, false, false, false, false, false, true, false, true, false, true, false, true, false, false, false, false, false, true, false, true, true, false, false, true, true, true, true, true, true, true, true,
  true, false, true, true, false, false, false, true, true, false, true, false, false, false, false, false, false, false, false, true, false, false, false, false, true, true, false, true, true, false, false, false, true, true, true,
  true, true, true, true, true, true, true, true, true, true, true, true, true, false, false, true, false, true, false, true, true, true, true, false, true, false, true, true, true, false, true, true, true, true, false,
  true, false, false, true, true, false, true, false, false, false, true, false, true, true, true, false, false, false, false, true, false, false, false, false, false, false, false, true, false, false, true, true, true, false, true,
  true, false, true, true, false, false, true, true, false, true, true, true, true, true, false, false, false, false, true, true, true, false, true, false, false, false, true, true, true, true, true, true, true, true, false,
  false, true, false, false, false, true, false, true, false, true, true, true, true, true, false, false, true, false, false, true, false, false, false, true, false, true, false, false, false, true, false, true, false, true, true,
  true, true, true, false, true, true, true, false, true, false, true, false, false, true, true, true, true, true, false, true, true, true, true, true, true, true, true, false, true, true, false, true, true, true, true,
  true, true, true, false, true, true, false, false, false, true, false, true, false, false, false, true, true, true, false, true, true, false, true, true, false, false, true, false, false, true, false, false, false, false, false,
  true, false, false, false, true, false, true, true, true, true, true, true, false, true, false, true, true, true, true, true, false, false, true, false, true, true, false, false, false, true, true, true, true, true, false,
  true, false, false, false, true, true, true, true, true, true, true, false, false, false, false, false, true, true, false, true, true, true, false, false, false, false, true, true, true, false, false, true, true, false, false,
  true, false, true, true, true, true, true, true, true, true, true, true, false, true, true, false, true, true, false, true, false, false, true, true, true, true, true, true, true, true, false, true, true, true, true,
  false, false, true, true, true, false, true, true, true, true, true, false, true, true, true, false, false, true, false, false, true, true, false, false, false, true, false, true, true, true, false, true, false, true, false,
  true, true, true, true, true, true, false, false, false, true, false, true, true, true, true, true, true, true, false, false, true, false, true, true, true, true, false, true, true, true, true, true, true, true, true,
  true, true, true, false, true, true, false, false, true, false, true, false, false, false, true, true, true, false, false, true, true, true, false, false, true, true, true, true, false, true, false, false, true, false, false,
  true, false, false, true, false, true, true, false, false, false, false, true, true, true, false, true, false, true, true, false, true, true, true, true, false, false, false, false, false, false, true, true, false, false, false,
  true, false, true, false, true, true, true, true, false, false, false, true, true, false, true, true, true, true, false, true, false, true, false, true, false, true, true, true, false, true, true, false, true, true, true,
  false, false, true, false, true, true, false, true, true, true, false, true, true, true, false, false, true, true, true, true, false, true, false, false, false, true, true, false, false, true, true, true, false, true, false,
  true, true, true, true, true, true, true, false, true, false, true, true, false, true, true, true, false, true, false, false, true, true, true, false, true, false, true, true, true, true, true, true, true, true, false,
]);
